c nIsolatedPIs 6
c maxPI 14
p cnf 128 343
c gate 15 2 12 0
2 -15 0
12 -15 0
-2 -12 15 0
c gate 16 1 11 0
1 -16 0
11 -16 0
-1 -11 16 0
c gate 17 15 16 0
15 -17 0
16 -17 0
-15 -16 17 0
c gate 18 1 13 0
1 -18 0
13 -18 0
-1 -13 18 0
c gate 19 3 11 0
3 -19 0
11 -19 0
-3 -11 19 0
c gate 20 -15 -19 0
-15 -20 0
-19 -20 0
15 19 20 0
c gate 21 15 19 0
15 -21 0
19 -21 0
-15 -19 21 0
c gate 22 -20 -21 0
-20 -22 0
-21 -22 0
20 21 22 0
c gate 23 18 22 0
18 -23 0
22 -23 0
-18 -22 23 0
c gate 24 -18 -22 0
-18 -24 0
-22 -24 0
18 22 24 0
c gate 25 -23 -24 0
-23 -25 0
-24 -25 0
23 24 25 0
c gate 26 4 10 0
4 -26 0
10 -26 0
-4 -10 26 0
c gate 27 5 9 0
5 -27 0
9 -27 0
-5 -9 27 0
c gate 28 6 8 0
6 -28 0
8 -28 0
-6 -8 28 0
c gate 29 -27 -28 0
-27 -29 0
-28 -29 0
27 28 29 0
c gate 30 27 28 0
27 -30 0
28 -30 0
-27 -28 30 0
c gate 31 -29 -30 0
-29 -31 0
-30 -31 0
29 30 31 0
c gate 32 -26 -31 0
-26 -32 0
-31 -32 0
26 31 32 0
c gate 33 26 31 0
26 -33 0
31 -33 0
-26 -31 33 0
c gate 34 -32 -33 0
-32 -34 0
-33 -34 0
32 33 34 0
c gate 35 5 8 0
5 -35 0
8 -35 0
-5 -8 35 0
c gate 36 4 9 0
4 -36 0
9 -36 0
-4 -9 36 0
c gate 37 -35 -36 0
-35 -37 0
-36 -37 0
35 36 37 0
c gate 38 3 10 0
3 -38 0
10 -38 0
-3 -10 38 0
c gate 39 35 36 0
35 -39 0
36 -39 0
-35 -36 39 0
c gate 40 -37 -39 0
-37 -40 0
-39 -40 0
37 39 40 0
c gate 41 -38 40 0
-38 -41 0
40 -41 0
38 -40 41 0
c gate 42 -37 -41 0
-37 -42 0
-41 -42 0
37 41 42 0
c gate 43 34 42 0
34 -43 0
42 -43 0
-34 -42 43 0
c gate 44 -34 -42 0
-34 -44 0
-42 -44 0
34 42 44 0
c gate 45 -43 -44 0
-43 -45 0
-44 -45 0
43 44 45 0
c gate 46 25 45 0
25 -46 0
45 -46 0
-25 -45 46 0
c gate 47 -25 -45 0
-25 -47 0
-45 -47 0
25 45 47 0
c gate 48 -46 -47 0
-46 -48 0
-47 -48 0
46 47 48 0
c gate 49 4 8 0
4 -49 0
8 -49 0
-4 -8 49 0
c gate 50 3 9 0
3 -50 0
9 -50 0
-3 -9 50 0
c gate 51 49 50 0
49 -51 0
50 -51 0
-49 -50 51 0
c gate 52 -49 -50 0
-49 -52 0
-50 -52 0
49 50 52 0
c gate 53 -51 -52 0
-51 -53 0
-52 -53 0
51 52 53 0
c gate 54 2 10 0
2 -54 0
10 -54 0
-2 -10 54 0
c gate 55 53 54 0
53 -55 0
54 -55 0
-53 -54 55 0
c gate 56 -51 -55 0
-51 -56 0
-55 -56 0
51 55 56 0
c gate 57 38 -40 0
38 -57 0
-40 -57 0
-38 40 57 0
c gate 58 -41 -57 0
-41 -58 0
-57 -58 0
41 57 58 0
c gate 59 -56 -58 0
-56 -59 0
-58 -59 0
56 58 59 0
c gate 60 -48 -59 0
-48 -60 0
-59 -60 0
48 59 60 0
c gate 61 -43 -46 0
-43 -61 0
-46 -61 0
43 46 61 0
c gate 62 -30 -33 0
-30 -62 0
-33 -62 0
30 33 62 0
c gate 63 6 9 0
6 -63 0
9 -63 0
-6 -9 63 0
c gate 64 7 8 0
7 -64 0
8 -64 0
-7 -8 64 0
c gate 65 -63 -64 0
-63 -65 0
-64 -65 0
63 64 65 0
c gate 66 63 64 0
63 -66 0
64 -66 0
-63 -64 66 0
c gate 67 -65 -66 0
-65 -67 0
-66 -67 0
65 66 67 0
c gate 68 5 10 0
5 -68 0
10 -68 0
-5 -10 68 0
c gate 69 -67 68 0
-67 -69 0
68 -69 0
67 -68 69 0
c gate 70 67 -68 0
67 -70 0
-68 -70 0
-67 68 70 0
c gate 71 -69 -70 0
-69 -71 0
-70 -71 0
69 70 71 0
c gate 72 62 71 0
62 -72 0
71 -72 0
-62 -71 72 0
c gate 73 -62 -71 0
-62 -73 0
-71 -73 0
62 71 73 0
c gate 74 -72 -73 0
-72 -74 0
-73 -74 0
72 73 74 0
c gate 75 2 13 0
2 -75 0
13 -75 0
-2 -13 75 0
c gate 76 3 12 0
3 -76 0
12 -76 0
-3 -12 76 0
c gate 77 4 11 0
4 -77 0
11 -77 0
-4 -11 77 0
c gate 78 -76 -77 0
-76 -78 0
-77 -78 0
76 77 78 0
c gate 79 76 77 0
76 -79 0
77 -79 0
-76 -77 79 0
c gate 80 -78 -79 0
-78 -80 0
-79 -80 0
78 79 80 0
c gate 81 75 80 0
75 -81 0
80 -81 0
-75 -80 81 0
c gate 82 -75 -80 0
-75 -82 0
-80 -82 0
75 80 82 0
c gate 83 -81 -82 0
-81 -83 0
-82 -83 0
81 82 83 0
c gate 84 -74 83 0
-74 -84 0
83 -84 0
74 -83 84 0
c gate 85 74 -83 0
74 -85 0
-83 -85 0
-74 83 85 0
c gate 86 -84 -85 0
-84 -86 0
-85 -86 0
84 85 86 0
c gate 87 -61 -86 0
-61 -87 0
-86 -87 0
61 86 87 0
c gate 88 61 86 0
61 -88 0
86 -88 0
-61 -86 88 0
c gate 89 -87 -88 0
-87 -89 0
-88 -89 0
87 88 89 0
c gate 90 1 14 0
1 -90 0
14 -90 0
-1 -14 90 0
c gate 91 -21 -23 0
-21 -91 0
-23 -91 0
21 23 91 0
c gate 92 90 -91 0
90 -92 0
-91 -92 0
-90 91 92 0
c gate 93 -90 91 0
-90 -93 0
91 -93 0
90 -91 93 0
c gate 94 -92 -93 0
-92 -94 0
-93 -94 0
92 93 94 0
c gate 95 89 94 0
89 -95 0
94 -95 0
-89 -94 95 0
c gate 96 -89 -94 0
-89 -96 0
-94 -96 0
89 94 96 0
c gate 97 -95 -96 0
-95 -97 0
-96 -97 0
95 96 97 0
c gate 98 -60 97 0
-60 -98 0
97 -98 0
60 -97 98 0
c gate 99 -17 -98 0
-17 -99 0
-98 -99 0
17 98 99 0
c gate 100 48 59 0
48 -100 0
59 -100 0
-48 -59 100 0
c gate 101 97 100 0
97 -101 0
100 -101 0
-97 -100 101 0
c gate 102 -97 -100 0
-97 -102 0
-100 -102 0
97 100 102 0
c gate 103 56 58 0
56 -103 0
58 -103 0
-56 -58 103 0
c gate 104 -59 -103 0
-59 -104 0
-103 -104 0
59 103 104 0
c gate 105 2 11 0
2 -105 0
11 -105 0
-2 -11 105 0
c gate 106 1 12 0
1 -106 0
12 -106 0
-1 -12 106 0
c gate 107 -105 -106 0
-105 -107 0
-106 -107 0
105 106 107 0
c gate 108 -17 -107 0
-17 -108 0
-107 -108 0
17 107 108 0
c gate 109 -104 -108 0
-104 -109 0
-108 -109 0
104 108 109 0
c gate 110 104 108 0
104 -110 0
108 -110 0
-104 -108 110 0
c gate 111 -53 -54 0
-53 -111 0
-54 -111 0
53 54 111 0
c gate 112 -55 -111 0
-55 -112 0
-111 -112 0
55 111 112 0
c gate 113 16 112 0
16 -113 0
112 -113 0
-16 -112 113 0
c gate 114 2 9 0
2 -114 0
9 -114 0
-2 -9 114 0
c gate 115 3 8 0
3 -115 0
8 -115 0
-3 -8 115 0
c gate 116 -114 -115 0
-114 -116 0
-115 -116 0
114 115 116 0
c gate 117 1 10 0
1 -117 0
10 -117 0
-1 -10 117 0
c gate 118 -116 117 0
-116 -118 0
117 -118 0
116 -117 118 0
c gate 119 114 115 0
114 -119 0
115 -119 0
-114 -115 119 0
c gate 120 -118 -119 0
-118 -120 0
-119 -120 0
118 119 120 0
c gate 121 -113 120 0
-113 -121 0
120 -121 0
113 -120 121 0
c gate 122 -16 -112 0
-16 -122 0
-112 -122 0
16 112 122 0
c gate 123 -121 -122 0
-121 -123 0
-122 -123 0
121 122 123 0
c gate 124 -110 123 0
-110 -124 0
123 -124 0
110 -123 124 0
c gate 125 -109 124 0
-109 -125 0
124 -125 0
109 -124 125 0
c gate 126 -102 125 0
-102 -126 0
125 -126 0
102 -125 126 0
c gate 127 -101 126 0
-101 -127 0
126 -127 0
101 -126 127 0
c gate 128 -99 127 0
-99 -128 0
127 -128 0
99 -127 128 0
c PO
128 0
